c Random generated cnf formula, satisfiable: true
p cnf 10 50
-3 7 -8 0
9 -2 5 0
7 5 -2 0
-10 7 3 0
7 -1 -3 0
-10 -7 -4 0
-9 1 -3 0
2 -3 5 0
2 -4 6 0
-10 9 2 0
5 7 8 0
-6 -5 -10 0
7 -1 -10 0
-10 -3 -5 0
3 -1 4 0
9 8 5 0
-3 6 -4 0
-10 5 6 0
-10 -1 -9 0
-8 5 -4 0
3 4 -5 0
-1 9 8 0
2 -7 3 0
4 9 -6 0
-1 6 -9 0
-4 -9 6 0
-3 -10 -7 0
-7 5 -10 0
9 -6 -3 0
10 6 5 0
-9 -6 3 0
-9 -10 -3 0
7 -8 -1 0
4 -8 -2 0
-10 -3 5 0
-3 7 -2 0
-4 -6 3 0
-1 -2 -4 0
-5 -6 -1 0
3 7 8 0
3 -8 -2 0
-7 3 -8 0
-8 10 -5 0
1 7 -6 0
2 8 5 0
1 -3 -7 0
9 -6 2 0
7 3 -2 0
9 -2 -3 0
3 -1 -8 0
